benchmarks/crosswords/mzn/crossword3_28.res
REGULAR
REGULAR
REGULAR
REGULAR
REGULAR
REGULAR
REGULAR
REGULAR
REGULAR
REGULAR
REGULAR
REGULAR
REGULAR
REGULAR
REGULAR
REGULAR
REGULAR
REGULAR
REGULAR
REGULAR
REGULAR
REGULAR
REGULAR
REGULAR
REGULAR
REGULAR
REGULAR
REGULAR
REGULAR
REGULAR
REGULAR
REGULAR
REGULAR
REGULAR
REGULAR
REGULAR
REGULAR
REGULAR
REGULAR
REGULAR
REGULAR
REGULAR
REGULAR
REGULAR
REGULAR
REGULAR
REGULAR
REGULAR
REGULAR
REGULAR
REGULAR
REGULAR
REGULAR
REGULAR
REGULAR
REGULAR
REGULAR
REGULAR
REGULAR
REGULAR
REGULAR
REGULAR
REGULAR
REGULAR
REGULAR
REGULAR
REGULAR
REGULAR
REGULAR
REGULAR
REGULAR
REGULAR
REGULAR
REGULAR
REGULAR
REGULAR
REGULAR
REGULAR
REGULAR
REGULAR
REGULAR
REGULAR
REGULAR
REGULAR
REGULAR
REGULAR
REGULAR
REGULAR
REGULAR
REGULAR
REGULAR
REGULAR
REGULAR
REGULAR
REGULAR
REGULAR
REGULAR
REGULAR
REGULAR
REGULAR
REGULAR
REGULAR
REGULAR
REGULAR
REGULAR
REGULAR
REGULAR
REGULAR
REGULAR
REGULAR
REGULAR
REGULAR
REGULAR
REGULAR
REGULAR
REGULAR
REGULAR
REGULAR
REGULAR
REGULAR
REGULAR
REGULAR
REGULAR
REGULAR
REGULAR
REGULAR
REGULAR
REGULAR
REGULAR
REGULAR
L = array1d(0..295, [1, 5, 13, 15, 20, 12, 9, 15, 19, 14, 5, 13, 1, 9, 12, 1, 13, 22, 1, 12, 15, 1, 20, 20, 5, 5, 11, 1, 18, 12, 1, 18, 21, 1, 13, 1, 12, 16, 1, 14, 19, 4, 1, 5, 4, 5, 3, 1, 12, 3, 9, 8, 16, 18, 15, 13, 15, 16, 15, 18, 8, 20, 14, 1, 9, 12, 1, 2, 1, 8, 1, 1, 4, 1, 1, 14, 21, 20, 19, 2, 18, 21, 12, 2, 1, 12, 1, 5, 20, 19, 1, 20, 19, 9, 4, 1, 13, 1, 19, 1, 12, 12, 5, 5, 19, 16, 1, 2, 1, 18, 1, 5, 9, 12, 5, 5, 6, 5, 19, 1, 5, 3, 9, 21, 8, 19, 12, 21, 6, 5, 25, 5, 11, 3, 1, 8, 19, 14, 15, 19, 25, 20, 3, 5, 12, 1, 5, 3, 1, 5, 16, 19, 1, 18, 5, 14, 15, 19, 18, 1, 1, 14, 9, 18, 20, 18, 21, 8, 16, 12, 21, 19, 1, 8, 1, 20, 12, 9, 21, 2, 7, 1, 2, 3, 1, 13, 22, 15, 22, 12, 21, 11, 1, 2, 19, 1, 13, 18, 1, 3, 19, 15, 5, 19, 15, 15, 7, 14, 15, 13, 1, 3, 18, 18, 5, 11, 5, 5, 13, 9, 3, 15, 12, 5, 18, 9, 12, 5, 9, 18, 14, 1, 4, 4, 5, 20, 1, 3, 9, 20, 14, 5, 8, 20, 21, 1, 14, 21, 1, 13, 18, 5, 26, 5, 14, 9, 16, 15, 8, 3, 26, 20, 9, 18, 5, 12, 1, 2, 1, 2, 5, 18, 5, 25, 20, 19, 1, 12, 15, 3, 4, 5, 3, 1, 8, 1, 12, 2, 19, 12, 5, 5, 13, 1, 12, 5]);
----------

%%  runtime:       9.588 (9588.907 ms)
%%  solvetime:     0.209 (209.739 ms)
%%  solutions:     1
%%  variables:     25368
%%  propagators:   33570
%%  propagations:  324483
%%  nodes:         163
%%  failures:      25
%%  restarts:      0
%%  peak depth:    129

GECODE_TUPLESET_MEM
GECODE_TUPLESET_MEM
GECODE_TUPLESET_MEM
GECODE_TUPLESET_MEM
GECODE_TUPLESET_MEM
GECODE_TUPLESET_MEM
GECODE_TUPLESET_MEM
GECODE_TUPLESET_MEM
GECODE_TUPLESET_MEM
GECODE_TUPLESET_MEM
GECODE_TUPLESET_MEM
GECODE_TUPLESET_MEM
GECODE_TUPLESET_MEM
GECODE_TUPLESET_MEM
GECODE_TUPLESET_MEM
GECODE_TUPLESET_MEM
GECODE_TUPLESET_MEM
GECODE_TUPLESET_MEM
GECODE_TUPLESET_MEM
GECODE_TUPLESET_MEM
GECODE_TUPLESET_MEM
GECODE_TUPLESET_MEM
GECODE_TUPLESET_MEM
GECODE_TUPLESET_MEM
GECODE_TUPLESET_MEM
GECODE_TUPLESET_MEM
GECODE_TUPLESET_MEM
GECODE_TUPLESET_MEM
GECODE_TUPLESET_MEM
GECODE_TUPLESET_MEM
GECODE_TUPLESET_MEM
GECODE_TUPLESET_MEM
GECODE_TUPLESET_MEM
GECODE_TUPLESET_MEM
GECODE_TUPLESET_MEM
GECODE_TUPLESET_MEM
GECODE_TUPLESET_MEM
GECODE_TUPLESET_MEM
GECODE_TUPLESET_MEM
GECODE_TUPLESET_MEM
GECODE_TUPLESET_MEM
GECODE_TUPLESET_MEM
GECODE_TUPLESET_MEM
GECODE_TUPLESET_MEM
GECODE_TUPLESET_MEM
GECODE_TUPLESET_MEM
GECODE_TUPLESET_MEM
GECODE_TUPLESET_MEM
GECODE_TUPLESET_MEM
GECODE_TUPLESET_MEM
GECODE_TUPLESET_MEM
GECODE_TUPLESET_MEM
GECODE_TUPLESET_MEM
GECODE_TUPLESET_MEM
GECODE_TUPLESET_MEM
GECODE_TUPLESET_MEM
GECODE_TUPLESET_MEM
GECODE_TUPLESET_MEM
GECODE_TUPLESET_MEM
GECODE_TUPLESET_MEM
GECODE_TUPLESET_MEM
GECODE_TUPLESET_MEM
GECODE_TUPLESET_MEM
GECODE_TUPLESET_MEM
GECODE_TUPLESET_MEM
GECODE_TUPLESET_MEM
GECODE_TUPLESET_MEM
GECODE_TUPLESET_MEM
GECODE_TUPLESET_MEM
GECODE_TUPLESET_MEM
GECODE_TUPLESET_MEM
GECODE_TUPLESET_MEM
GECODE_TUPLESET_MEM
GECODE_TUPLESET_MEM
GECODE_TUPLESET_MEM
GECODE_TUPLESET_MEM
GECODE_TUPLESET_MEM
GECODE_TUPLESET_MEM
GECODE_TUPLESET_MEM
GECODE_TUPLESET_MEM
GECODE_TUPLESET_MEM
GECODE_TUPLESET_MEM
GECODE_TUPLESET_MEM
GECODE_TUPLESET_MEM
GECODE_TUPLESET_MEM
GECODE_TUPLESET_MEM
GECODE_TUPLESET_MEM
GECODE_TUPLESET_MEM
GECODE_TUPLESET_MEM
GECODE_TUPLESET_MEM
GECODE_TUPLESET_MEM
GECODE_TUPLESET_MEM
GECODE_TUPLESET_MEM
GECODE_TUPLESET_MEM
GECODE_TUPLESET_MEM
GECODE_TUPLESET_MEM
GECODE_TUPLESET_MEM
GECODE_TUPLESET_MEM
GECODE_TUPLESET_MEM
GECODE_TUPLESET_MEM
GECODE_TUPLESET_MEM
GECODE_TUPLESET_MEM
GECODE_TUPLESET_MEM
GECODE_TUPLESET_MEM
GECODE_TUPLESET_MEM
GECODE_TUPLESET_MEM
GECODE_TUPLESET_MEM
GECODE_TUPLESET_MEM
GECODE_TUPLESET_MEM
GECODE_TUPLESET_MEM
GECODE_TUPLESET_MEM
GECODE_TUPLESET_MEM
GECODE_TUPLESET_MEM
GECODE_TUPLESET_MEM
GECODE_TUPLESET_MEM
GECODE_TUPLESET_MEM
GECODE_TUPLESET_MEM
GECODE_TUPLESET_MEM
GECODE_TUPLESET_MEM
GECODE_TUPLESET_MEM
GECODE_TUPLESET_MEM
GECODE_TUPLESET_MEM
GECODE_TUPLESET_MEM
GECODE_TUPLESET_MEM
GECODE_TUPLESET_MEM
GECODE_TUPLESET_MEM
GECODE_TUPLESET_MEM
GECODE_TUPLESET_MEM
GECODE_TUPLESET_MEM
GECODE_TUPLESET_MEM
L = array1d(0..295, [1, 1, 8, 1, 2, 19, 20, 15, 16, 2, 1, 1, 19, 3, 21, 5, 4, 12, 5, 12, 1, 3, 1, 12, 9, 12, 21, 12, 1, 1, 14, 4, 25, 20, 23, 9, 7, 15, 13, 5, 14, 1, 14, 1, 12, 12, 1, 4, 5, 1, 14, 20, 8, 18, 15, 16, 15, 3, 5, 14, 20, 18, 9, 3, 16, 1, 4, 4, 1, 20, 1, 8, 1, 4, 5, 1, 18, 16, 1, 4, 4, 1, 13, 19, 6, 5, 18, 3, 1, 14, 2, 5, 18, 18, 1, 6, 18, 5, 4, 1, 1, 9, 4, 18, 1, 14, 20, 4, 5, 1, 4, 18, 1, 20, 1, 18, 5, 16, 5, 14, 4, 19, 3, 9, 4, 15, 2, 5, 12, 9, 19, 11, 7, 5, 14, 5, 19, 1, 3, 9, 4, 19, 18, 1, 3, 11, 2, 1, 1, 5, 4, 4, 15, 8, 1, 7, 9, 13, 13, 5, 2, 18, 21, 3, 5, 4, 5, 12, 5, 20, 5, 4, 1, 14, 9, 3, 5, 1, 19, 5, 7, 1, 2, 9, 4, 1, 5, 20, 14, 1, 12, 1, 7, 19, 19, 15, 2, 12, 1, 22, 1, 12, 12, 9, 1, 9, 19, 9, 14, 7, 16, 8, 4, 18, 1, 3, 5, 13, 5, 20, 18, 1, 13, 12, 5, 1, 7, 15, 14, 5, 1, 12, 9, 16, 1, 18, 12, 9, 1, 13, 5, 14, 20, 1, 18, 9, 1, 14, 2, 15, 15, 2, 20, 1, 9, 12, 2, 12, 15, 20, 2, 15, 12, 1, 5, 4, 14, 1, 5, 13, 13, 1, 12, 15, 13, 5, 9, 20, 5, 13, 12, 5, 19, 1, 19, 16, 5, 3, 5, 25, 5, 4, 3, 1, 19, 5]);
----------

%%  runtime:       1.359 (1359.526 ms)
%%  solvetime:     0.246 (246.944 ms)
%%  solutions:     1
%%  variables:     25368
%%  propagators:   33522
%%  propagations:  272110
%%  nodes:         151
%%  failures:      13
%%  restarts:      0
%%  peak depth:    131

GECODE_TUPLESET_SPEED
GECODE_TUPLESET_SPEED
GECODE_TUPLESET_SPEED
GECODE_TUPLESET_SPEED
GECODE_TUPLESET_SPEED
GECODE_TUPLESET_SPEED
GECODE_TUPLESET_SPEED
GECODE_TUPLESET_SPEED
GECODE_TUPLESET_SPEED
GECODE_TUPLESET_SPEED
GECODE_TUPLESET_SPEED
GECODE_TUPLESET_SPEED
GECODE_TUPLESET_SPEED
GECODE_TUPLESET_SPEED
GECODE_TUPLESET_SPEED
GECODE_TUPLESET_SPEED
GECODE_TUPLESET_SPEED
GECODE_TUPLESET_SPEED
GECODE_TUPLESET_SPEED
GECODE_TUPLESET_SPEED
GECODE_TUPLESET_SPEED
GECODE_TUPLESET_SPEED
GECODE_TUPLESET_SPEED
GECODE_TUPLESET_SPEED
GECODE_TUPLESET_SPEED
GECODE_TUPLESET_SPEED
GECODE_TUPLESET_SPEED
GECODE_TUPLESET_SPEED
GECODE_TUPLESET_SPEED
GECODE_TUPLESET_SPEED
GECODE_TUPLESET_SPEED
GECODE_TUPLESET_SPEED
GECODE_TUPLESET_SPEED
GECODE_TUPLESET_SPEED
GECODE_TUPLESET_SPEED
GECODE_TUPLESET_SPEED
GECODE_TUPLESET_SPEED
GECODE_TUPLESET_SPEED
GECODE_TUPLESET_SPEED
GECODE_TUPLESET_SPEED
GECODE_TUPLESET_SPEED
GECODE_TUPLESET_SPEED
GECODE_TUPLESET_SPEED
GECODE_TUPLESET_SPEED
GECODE_TUPLESET_SPEED
GECODE_TUPLESET_SPEED
GECODE_TUPLESET_SPEED
GECODE_TUPLESET_SPEED
GECODE_TUPLESET_SPEED
GECODE_TUPLESET_SPEED
GECODE_TUPLESET_SPEED
GECODE_TUPLESET_SPEED
GECODE_TUPLESET_SPEED
GECODE_TUPLESET_SPEED
GECODE_TUPLESET_SPEED
GECODE_TUPLESET_SPEED
GECODE_TUPLESET_SPEED
GECODE_TUPLESET_SPEED
GECODE_TUPLESET_SPEED
GECODE_TUPLESET_SPEED
GECODE_TUPLESET_SPEED
GECODE_TUPLESET_SPEED
GECODE_TUPLESET_SPEED
GECODE_TUPLESET_SPEED
GECODE_TUPLESET_SPEED
GECODE_TUPLESET_SPEED
GECODE_TUPLESET_SPEED
GECODE_TUPLESET_SPEED
GECODE_TUPLESET_SPEED
GECODE_TUPLESET_SPEED
GECODE_TUPLESET_SPEED
GECODE_TUPLESET_SPEED
GECODE_TUPLESET_SPEED
GECODE_TUPLESET_SPEED
GECODE_TUPLESET_SPEED
GECODE_TUPLESET_SPEED
GECODE_TUPLESET_SPEED
GECODE_TUPLESET_SPEED
GECODE_TUPLESET_SPEED
GECODE_TUPLESET_SPEED
GECODE_TUPLESET_SPEED
GECODE_TUPLESET_SPEED
GECODE_TUPLESET_SPEED
GECODE_TUPLESET_SPEED
GECODE_TUPLESET_SPEED
GECODE_TUPLESET_SPEED
GECODE_TUPLESET_SPEED
GECODE_TUPLESET_SPEED
GECODE_TUPLESET_SPEED
GECODE_TUPLESET_SPEED
GECODE_TUPLESET_SPEED
GECODE_TUPLESET_SPEED
GECODE_TUPLESET_SPEED
GECODE_TUPLESET_SPEED
GECODE_TUPLESET_SPEED
GECODE_TUPLESET_SPEED
GECODE_TUPLESET_SPEED
GECODE_TUPLESET_SPEED
GECODE_TUPLESET_SPEED
GECODE_TUPLESET_SPEED
GECODE_TUPLESET_SPEED
GECODE_TUPLESET_SPEED
GECODE_TUPLESET_SPEED
GECODE_TUPLESET_SPEED
GECODE_TUPLESET_SPEED
GECODE_TUPLESET_SPEED
GECODE_TUPLESET_SPEED
GECODE_TUPLESET_SPEED
GECODE_TUPLESET_SPEED
GECODE_TUPLESET_SPEED
GECODE_TUPLESET_SPEED
GECODE_TUPLESET_SPEED
GECODE_TUPLESET_SPEED
GECODE_TUPLESET_SPEED
GECODE_TUPLESET_SPEED
GECODE_TUPLESET_SPEED
GECODE_TUPLESET_SPEED
GECODE_TUPLESET_SPEED
GECODE_TUPLESET_SPEED
GECODE_TUPLESET_SPEED
GECODE_TUPLESET_SPEED
GECODE_TUPLESET_SPEED
GECODE_TUPLESET_SPEED
GECODE_TUPLESET_SPEED
GECODE_TUPLESET_SPEED
GECODE_TUPLESET_SPEED
GECODE_TUPLESET_SPEED
GECODE_TUPLESET_SPEED
GECODE_TUPLESET_SPEED
GECODE_TUPLESET_SPEED
L = array1d(0..295, [1, 1, 8, 1, 2, 19, 20, 15, 16, 2, 1, 1, 19, 3, 21, 5, 4, 12, 5, 12, 1, 3, 1, 12, 9, 12, 21, 12, 1, 1, 14, 4, 25, 20, 23, 9, 7, 15, 13, 5, 14, 1, 14, 1, 12, 12, 1, 4, 5, 1, 14, 20, 8, 18, 15, 16, 15, 3, 5, 14, 20, 18, 9, 3, 16, 1, 4, 4, 1, 20, 1, 8, 1, 4, 5, 1, 18, 16, 1, 4, 4, 1, 13, 19, 6, 5, 18, 3, 1, 14, 2, 5, 18, 18, 1, 6, 18, 5, 4, 1, 1, 9, 4, 18, 1, 14, 20, 4, 5, 1, 4, 18, 1, 20, 1, 18, 5, 16, 5, 14, 4, 19, 3, 9, 4, 15, 2, 5, 12, 9, 19, 11, 7, 5, 14, 5, 19, 1, 3, 9, 4, 19, 18, 1, 3, 11, 2, 1, 1, 5, 4, 4, 15, 8, 1, 7, 9, 13, 13, 5, 2, 18, 21, 3, 5, 4, 5, 12, 5, 20, 5, 4, 1, 14, 9, 3, 5, 1, 19, 5, 7, 1, 2, 9, 4, 1, 5, 20, 14, 1, 12, 1, 7, 19, 19, 15, 2, 12, 1, 22, 1, 12, 12, 9, 1, 9, 19, 9, 14, 7, 16, 8, 4, 18, 1, 3, 5, 13, 5, 20, 18, 1, 13, 12, 5, 1, 7, 15, 14, 5, 1, 12, 9, 16, 1, 18, 12, 9, 1, 13, 5, 14, 20, 1, 18, 9, 1, 14, 2, 15, 15, 2, 20, 1, 9, 12, 2, 12, 15, 20, 2, 15, 12, 1, 5, 4, 14, 1, 5, 13, 13, 1, 12, 15, 13, 5, 9, 20, 5, 13, 12, 5, 19, 1, 19, 16, 5, 3, 5, 25, 5, 4, 3, 1, 19, 5]);
----------

%%  runtime:       1.125 (1125.096 ms)
%%  solvetime:     0.134 (134.454 ms)
%%  solutions:     1
%%  variables:     25368
%%  propagators:   33522
%%  propagations:  273906
%%  nodes:         151
%%  failures:      13
%%  restarts:      0
%%  peak depth:    131

COMPACT_TABLE
COMPACT_TABLE
COMPACT_TABLE
COMPACT_TABLE
COMPACT_TABLE
COMPACT_TABLE
COMPACT_TABLE
COMPACT_TABLE
COMPACT_TABLE
COMPACT_TABLE
COMPACT_TABLE
COMPACT_TABLE
COMPACT_TABLE
COMPACT_TABLE
COMPACT_TABLE
COMPACT_TABLE
COMPACT_TABLE
COMPACT_TABLE
COMPACT_TABLE
COMPACT_TABLE
COMPACT_TABLE
COMPACT_TABLE
COMPACT_TABLE
COMPACT_TABLE
COMPACT_TABLE
COMPACT_TABLE
COMPACT_TABLE
COMPACT_TABLE
COMPACT_TABLE
COMPACT_TABLE
COMPACT_TABLE
COMPACT_TABLE
COMPACT_TABLE
COMPACT_TABLE
COMPACT_TABLE
COMPACT_TABLE
COMPACT_TABLE
COMPACT_TABLE
COMPACT_TABLE
COMPACT_TABLE
COMPACT_TABLE
COMPACT_TABLE
COMPACT_TABLE
COMPACT_TABLE
COMPACT_TABLE
COMPACT_TABLE
COMPACT_TABLE
COMPACT_TABLE
COMPACT_TABLE
COMPACT_TABLE
COMPACT_TABLE
COMPACT_TABLE
COMPACT_TABLE
COMPACT_TABLE
COMPACT_TABLE
COMPACT_TABLE
COMPACT_TABLE
COMPACT_TABLE
COMPACT_TABLE
COMPACT_TABLE
COMPACT_TABLE
COMPACT_TABLE
COMPACT_TABLE
COMPACT_TABLE
COMPACT_TABLE
COMPACT_TABLE
COMPACT_TABLE
COMPACT_TABLE
COMPACT_TABLE
COMPACT_TABLE
COMPACT_TABLE
COMPACT_TABLE
COMPACT_TABLE
COMPACT_TABLE
COMPACT_TABLE
COMPACT_TABLE
COMPACT_TABLE
COMPACT_TABLE
COMPACT_TABLE
COMPACT_TABLE
COMPACT_TABLE
COMPACT_TABLE
COMPACT_TABLE
COMPACT_TABLE
COMPACT_TABLE
COMPACT_TABLE
COMPACT_TABLE
COMPACT_TABLE
COMPACT_TABLE
COMPACT_TABLE
COMPACT_TABLE
COMPACT_TABLE
COMPACT_TABLE
COMPACT_TABLE
COMPACT_TABLE
COMPACT_TABLE
COMPACT_TABLE
COMPACT_TABLE
COMPACT_TABLE
COMPACT_TABLE
COMPACT_TABLE
COMPACT_TABLE
COMPACT_TABLE
COMPACT_TABLE
COMPACT_TABLE
COMPACT_TABLE
COMPACT_TABLE
COMPACT_TABLE
COMPACT_TABLE
COMPACT_TABLE
COMPACT_TABLE
COMPACT_TABLE
COMPACT_TABLE
COMPACT_TABLE
COMPACT_TABLE
COMPACT_TABLE
COMPACT_TABLE
COMPACT_TABLE
COMPACT_TABLE
COMPACT_TABLE
COMPACT_TABLE
COMPACT_TABLE
COMPACT_TABLE
COMPACT_TABLE
COMPACT_TABLE
COMPACT_TABLE
COMPACT_TABLE
COMPACT_TABLE
COMPACT_TABLE
COMPACT_TABLE
L = array1d(0..295, [1, 1, 8, 1, 2, 19, 20, 15, 16, 2, 1, 1, 19, 3, 21, 5, 4, 12, 5, 12, 1, 3, 1, 12, 9, 12, 21, 12, 1, 1, 14, 4, 25, 20, 23, 9, 7, 15, 13, 5, 14, 1, 14, 1, 12, 12, 1, 4, 5, 1, 14, 20, 8, 18, 15, 16, 15, 3, 5, 14, 20, 18, 9, 3, 16, 1, 4, 4, 1, 20, 1, 8, 1, 4, 5, 1, 18, 16, 1, 4, 4, 1, 13, 19, 6, 5, 18, 3, 1, 14, 2, 5, 18, 18, 1, 6, 18, 5, 4, 1, 1, 9, 4, 18, 1, 14, 20, 4, 5, 1, 4, 18, 1, 20, 1, 18, 5, 16, 5, 14, 4, 19, 3, 9, 4, 15, 2, 5, 12, 9, 19, 11, 7, 5, 14, 5, 19, 1, 3, 9, 4, 19, 18, 1, 3, 11, 2, 1, 1, 5, 4, 4, 15, 8, 1, 7, 9, 13, 13, 5, 2, 18, 21, 3, 5, 4, 5, 12, 5, 20, 5, 4, 1, 14, 9, 3, 5, 1, 19, 5, 7, 1, 2, 9, 4, 1, 5, 20, 14, 1, 12, 1, 7, 19, 19, 15, 2, 12, 1, 22, 1, 12, 12, 9, 1, 9, 19, 9, 14, 7, 16, 8, 4, 18, 1, 3, 5, 13, 5, 20, 18, 1, 13, 12, 5, 1, 7, 15, 14, 5, 1, 12, 9, 16, 1, 18, 12, 9, 1, 13, 5, 14, 20, 1, 18, 9, 1, 14, 2, 15, 15, 2, 20, 1, 9, 12, 2, 12, 15, 20, 2, 15, 12, 1, 5, 4, 14, 1, 5, 13, 13, 1, 12, 15, 13, 5, 9, 20, 5, 13, 12, 5, 19, 1, 19, 16, 5, 3, 5, 25, 5, 4, 3, 1, 19, 5]);
----------

%%  runtime:       1.385 (1385.369 ms)
%%  solvetime:     0.106 (106.060 ms)
%%  solutions:     1
%%  variables:     25368
%%  propagators:   33522
%%  propagations:  272222
%%  nodes:         151
%%  failures:      13
%%  restarts:      0
%%  peak depth:    131

